\ENCODING=ISO-8859-1
\Problem name: ilog.cplex

Minimize
 obj: 10 y_0_0 + 2 x_0_0 + 30 y_0_1 + 3 x_0_1 + 20 y_0_2 + 4 x_0_2 + 10 y_1_0
      + 3 x_1_0 + 30 y_1_1 + 2 x_1_1 + 20 y_1_2 + x_1_2 + 10 y_2_0 + x_2_0
      + 30 y_2_1 + 4 x_2_1 + 20 y_2_2 + 3 x_2_2 + 10 y_3_0 + 4 x_3_0 + 30 y_3_1
      + 5 x_3_1 + 20 y_3_2 + 2 x_3_2
Subject To
 Supply_0: x_0_0 + x_0_1 + x_0_2 <= 10
 Supply_1: x_1_0 + x_1_1 + x_1_2 <= 30
 Supply_2: x_2_0 + x_2_1 + x_2_2 <= 40
 Supply_3: x_3_0 + x_3_1 + x_3_2 <= 20
 Demand_0: x_0_0 + x_1_0 + x_2_0 + x_3_0 >= 20
 Demand_1: x_0_1 + x_1_1 + x_2_1 + x_3_1 >= 50
 Demand_2: x_0_2 + x_1_2 + x_2_2 + x_3_2 >= 30
 c8:       - 10 y_0_0 + x_0_0 <= 0
 c9:       - 10 y_0_1 + x_0_1 <= 0
 c10:      - 10 y_0_2 + x_0_2 <= 0
 c11:      - 20 y_1_0 + x_1_0 <= 0
 c12:      - 30 y_1_1 + x_1_1 <= 0
 c13:      - 30 y_1_2 + x_1_2 <= 0
 c14:      - 20 y_2_0 + x_2_0 <= 0
 c15:      - 40 y_2_1 + x_2_1 <= 0
 c16:      - 30 y_2_2 + x_2_2 <= 0
 c17:      - 20 y_3_0 + x_3_0 <= 0
 c18:      - 20 y_3_1 + x_3_1 <= 0
 c19:      - 20 y_3_2 + x_3_2 <= 0
Bounds
 0 <= y_0_0 <= 1
 0 <= x_0_0 <= 100000
 0 <= y_0_1 <= 1
 0 <= x_0_1 <= 100000
 0 <= y_0_2 <= 1
 0 <= x_0_2 <= 100000
 0 <= y_1_0 <= 1
 0 <= x_1_0 <= 100000
 0 <= y_1_1 <= 1
 0 <= x_1_1 <= 100000
 0 <= y_1_2 <= 1
 0 <= x_1_2 <= 100000
 0 <= y_2_0 <= 1
 0 <= x_2_0 <= 100000
 0 <= y_2_1 <= 1
 0 <= x_2_1 <= 100000
 0 <= y_2_2 <= 1
 0 <= x_2_2 <= 100000
 0 <= y_3_0 <= 1
 0 <= x_3_0 <= 100000
 0 <= y_3_1 <= 1
 0 <= x_3_1 <= 100000
 0 <= y_3_2 <= 1
 0 <= x_3_2 <= 100000
Generals
 y_0_0  y_0_1  y_0_2  y_1_0  y_1_1  y_1_2  y_2_0  y_2_1  y_2_2  y_3_0  y_3_1 
 y_3_2 
End
